; DUP1 SLOAD SWAP1 SWAP2 SWAP1 => SWAP1 DUP2 SLOAD
(set-option :produce-proofs true)
; 
(set-info :status unknown)
(declare-fun storage_t ((_ BitVec 256) (_ BitVec 256) (_ BitVec 256) Int (_ BitVec 256)) (_ BitVec 256))
(declare-fun storage_s ((_ BitVec 256) (_ BitVec 256) (_ BitVec 256) Int (_ BitVec 256)) (_ BitVec 256))
(declare-fun exc_halt_t (Int) Bool)
(declare-fun exc_halt_s (Int) Bool)
(declare-fun stack_t ((_ BitVec 256) (_ BitVec 256) (_ BitVec 256) Int (_ BitVec 6)) (_ BitVec 256))
(declare-fun stack_s ((_ BitVec 256) (_ BitVec 256) (_ BitVec 256) Int (_ BitVec 6)) (_ BitVec 256))
(declare-fun sc_t (Int) (_ BitVec 6))
(declare-fun sc_s (Int) (_ BitVec 6))
(declare-fun used_gas_t ((_ BitVec 256) (_ BitVec 256) (_ BitVec 256) Int) Int)
(declare-fun used_gas_s ((_ BitVec 256) (_ BitVec 256) (_ BitVec 256) Int) Int)
(assert
 (exists ((x_0 (_ BitVec 256)) (x_1 (_ BitVec 256)) (x_SLOAD_0 (_ BitVec 256)) )(let (($x3506 (forall ((w (_ BitVec 256)) )(let ((?x533 (storage_t x_0 x_1 x_SLOAD_0 3 w)))
 (let ((?x5214 (storage_s x_0 x_1 x_SLOAD_0 5 w)))
 (= ?x5214 ?x533))))
 ))
 (let (($x783 (exc_halt_t 3)))
 (let (($x3979 (exc_halt_s 5)))
 (let (($x358 (= $x3979 $x783)))
 (let (($x9659 (forall ((n (_ BitVec 6)) )(let ((?x2915 (stack_t x_0 x_1 x_SLOAD_0 3 n)))
 (let ((?x6118 (stack_s x_0 x_1 x_SLOAD_0 5 n)))
 (let (($x6788 (= ?x6118 ?x2915)))
 (or (bvsle (sc_t 3) n) $x6788)))))
 ))
 (let ((?x8233 (sc_t 3)))
 (let ((?x805 (sc_s 5)))
 (let (($x7911 (= ?x805 ?x8233)))
 (let ((?x9008 (used_gas_t x_0 x_1 x_SLOAD_0 0)))
 (let ((?x5339 (used_gas_s x_0 x_1 x_SLOAD_0 0)))
 (let (($x10611 (= ?x5339 ?x9008)))
 (let (($x10389 (forall ((w (_ BitVec 256)) )(let ((?x810 (storage_t x_0 x_1 x_SLOAD_0 0 w)))
 (let ((?x7647 (storage_s x_0 x_1 x_SLOAD_0 0 w)))
 (= ?x7647 ?x810))))
 ))
 (let (($x56 (exc_halt_t 0)))
 (let (($x57 (exc_halt_s 0)))
 (let (($x58 (= $x57 $x56)))
 (let (($x2911 (forall ((n (_ BitVec 6)) )(let ((?x63 (sc_t 0)))
 (let (($x10780 (bvsle ?x63 n)))
 (let ((?x3010 (stack_t x_0 x_1 x_SLOAD_0 0 n)))
 (let ((?x7991 (stack_s x_0 x_1 x_SLOAD_0 0 n)))
 (let (($x3715 (= ?x7991 ?x3010)))
 (or $x3715 $x10780)))))))
 ))
 (let ((?x63 (sc_t 0)))
 (let ((?x72 (sc_s 0)))
 (let (($x73 (= ?x72 ?x63)))
 (let (($x8560 (= $x783 (or (exc_halt_t 2) (not (bvsle (_ bv0 6) (bvadd (_ bv63 6) (sc_t 2))))))))
 (let (($x10181 (forall ((w (_ BitVec 256)) )(let ((?x2163 (storage_t x_0 x_1 x_SLOAD_0 2 w)))
 (let ((?x533 (storage_t x_0 x_1 x_SLOAD_0 3 w)))
 (= ?x533 ?x2163))))
 ))
 (let (($x7552 (forall ((n (_ BitVec 6)) )(let ((?x4218 (stack_t x_0 x_1 x_SLOAD_0 2 n)))
 (let ((?x2915 (stack_t x_0 x_1 x_SLOAD_0 3 n)))
 (or (bvsle (bvadd (_ bv63 6) (sc_t 2)) n) (= ?x2915 ?x4218)))))
 ))
 (let ((?x4056 (sc_t 2)))
 (let (($x10348 (= ?x8233 ?x4056)))
 (let (($x7539 (= (used_gas_t x_0 x_1 x_SLOAD_0 3) (+ 200 (used_gas_t x_0 x_1 x_SLOAD_0 2)))))
 (let ((?x4487 (bvadd (_ bv63 6) ?x4056)))
 (let ((?x10094 (stack_t x_0 x_1 x_SLOAD_0 2 ?x4487)))
 (let (($x10102 (= (stack_t x_0 x_1 x_SLOAD_0 3 (bvadd (_ bv63 6) ?x8233)) (storage_t x_0 x_1 x_SLOAD_0 2 ?x10094))))
 (let (($x1920 (exc_halt_t 1)))
 (let (($x1468 (not (bvsle (_ bv0 6) (bvadd (_ bv62 6) (sc_t 1))))))
 (let (($x10216 (or $x1468 $x1920 (not (= ((_ extract 6 6) (bvadd (_ bv1 7) (concat (_ bv0 1) (sc_t 1)))) (_ bv0 1))))))
 (let (($x903 (exc_halt_t 2)))
 (let (($x10061 (forall ((w (_ BitVec 256)) )(let ((?x9094 (storage_t x_0 x_1 x_SLOAD_0 1 w)))
 (let ((?x2163 (storage_t x_0 x_1 x_SLOAD_0 2 w)))
 (= ?x2163 ?x9094))))
 ))
 (let (($x10234 (forall ((n (_ BitVec 6)) )(let ((?x4023 (sc_t 1)))
 (let ((?x4968 (bvadd (_ bv62 6) ?x4023)))
 (let (($x5510 (bvsle ?x4968 n)))
 (let ((?x9306 (stack_t x_0 x_1 x_SLOAD_0 1 n)))
 (let ((?x4218 (stack_t x_0 x_1 x_SLOAD_0 2 n)))
 (or (= ?x4218 ?x9306) $x5510)))))))
 ))
 (let ((?x8604 (used_gas_t x_0 x_1 x_SLOAD_0 2)))
 (let ((?x4023 (sc_t 1)))
 (let ((?x166 (bvadd (_ bv63 6) ?x4023)))
 (let ((?x763 (stack_t x_0 x_1 x_SLOAD_0 1 ?x166)))
 (let ((?x4968 (bvadd (_ bv62 6) ?x4023)))
 (let ((?x5258 (stack_t x_0 x_1 x_SLOAD_0 1 ?x4968)))
 (let (($x573 (= $x1920 (or $x56 (not (bvsle (_ bv0 6) (bvadd (_ bv62 6) ?x63)))))))
 (let (($x7528 (forall ((w (_ BitVec 256)) )(let ((?x810 (storage_t x_0 x_1 x_SLOAD_0 0 w)))
 (let ((?x9094 (storage_t x_0 x_1 x_SLOAD_0 1 w)))
 (= ?x9094 ?x810))))
 ))
 (let (($x6431 (forall ((n (_ BitVec 6)) )(let ((?x3010 (stack_t x_0 x_1 x_SLOAD_0 0 n)))
 (let ((?x9306 (stack_t x_0 x_1 x_SLOAD_0 1 n)))
 (let ((?x63 (sc_t 0)))
 (let ((?x9795 (bvadd (_ bv62 6) ?x63)))
 (let (($x1720 (bvsle ?x9795 n)))
 (or $x1720 (= ?x9306 ?x3010))))))))
 ))
 (let (($x2379 (= ?x4023 ?x63)))
 (let (($x9754 (= $x3979 (or (exc_halt_s 4) (not (bvsle (_ bv0 6) (bvadd (_ bv62 6) (sc_s 4))))))))
 (let (($x8982 (forall ((w (_ BitVec 256)) )(let ((?x1734 (storage_s x_0 x_1 x_SLOAD_0 4 w)))
 (let ((?x5214 (storage_s x_0 x_1 x_SLOAD_0 5 w)))
 (= ?x5214 ?x1734))))
 ))
 (let (($x5867 (forall ((n (_ BitVec 6)) )(let ((?x4807 (stack_s x_0 x_1 x_SLOAD_0 4 n)))
 (let ((?x6118 (stack_s x_0 x_1 x_SLOAD_0 5 n)))
 (or (bvsle (bvadd (_ bv62 6) (sc_s 4)) n) (= ?x6118 ?x4807)))))
 ))
 (let ((?x4305 (sc_s 4)))
 (let (($x5608 (= ?x805 ?x4305)))
 (let (($x3332 (= (used_gas_s x_0 x_1 x_SLOAD_0 5) (+ 3 (used_gas_s x_0 x_1 x_SLOAD_0 4)))))
 (let ((?x6773 (bvadd (_ bv63 6) ?x4305)))
 (let ((?x7839 (stack_s x_0 x_1 x_SLOAD_0 4 ?x6773)))
 (let ((?x758 (bvadd (_ bv62 6) ?x4305)))
 (let ((?x4359 (stack_s x_0 x_1 x_SLOAD_0 4 ?x758)))
 (let (($x64 (exc_halt_s 4)))
 (let (($x608 (= $x64 (or (exc_halt_s 3) (not (bvsle (_ bv0 6) (bvadd (_ bv61 6) (sc_s 3))))))))
 (let (($x6472 (forall ((w (_ BitVec 256)) )(let ((?x10407 (storage_s x_0 x_1 x_SLOAD_0 3 w)))
 (let ((?x1734 (storage_s x_0 x_1 x_SLOAD_0 4 w)))
 (= ?x1734 ?x10407))))
 ))
 (let (($x9745 (forall ((n (_ BitVec 6)) )(let ((?x3392 (stack_s x_0 x_1 x_SLOAD_0 3 n)))
 (let ((?x4807 (stack_s x_0 x_1 x_SLOAD_0 4 n)))
 (or (= ?x4807 ?x3392) (bvsle (bvadd (_ bv61 6) (sc_s 3)) n)))))
 ))
 (let ((?x275 (sc_s 3)))
 (let (($x8024 (= ?x4305 ?x275)))
 (let ((?x5639 (used_gas_s x_0 x_1 x_SLOAD_0 4)))
 (let ((?x3193 (bvadd (_ bv63 6) ?x275)))
 (let ((?x2705 (stack_s x_0 x_1 x_SLOAD_0 3 ?x3193)))
 (let (($x292 (exc_halt_s 3)))
 (let (($x10091 (= $x292 (or (exc_halt_s 2) (not (bvsle (_ bv0 6) (bvadd (_ bv62 6) (sc_s 2))))))))
 (let (($x10271 (forall ((w (_ BitVec 256)) )(let ((?x2383 (storage_s x_0 x_1 x_SLOAD_0 2 w)))
 (let ((?x10407 (storage_s x_0 x_1 x_SLOAD_0 3 w)))
 (= ?x10407 ?x2383))))
 ))
 (let (($x2507 (forall ((n (_ BitVec 6)) )(let ((?x1907 (stack_s x_0 x_1 x_SLOAD_0 2 n)))
 (let ((?x3392 (stack_s x_0 x_1 x_SLOAD_0 3 n)))
 (or (= ?x3392 ?x1907) (bvsle (bvadd (_ bv62 6) (sc_s 2)) n)))))
 ))
 (let ((?x218 (sc_s 2)))
 (let (($x9676 (= ?x275 ?x218)))
 (let ((?x9731 (used_gas_s x_0 x_1 x_SLOAD_0 3)))
 (let ((?x8896 (bvadd (_ bv63 6) ?x218)))
 (let ((?x9816 (stack_s x_0 x_1 x_SLOAD_0 2 ?x8896)))
 (let ((?x5800 (bvadd (_ bv62 6) ?x275)))
 (let ((?x10152 (stack_s x_0 x_1 x_SLOAD_0 3 ?x5800)))
 (let (($x247 (exc_halt_s 2)))
 (let (($x9575 (= $x247 (or (exc_halt_s 1) (not (bvsle (_ bv0 6) (bvadd (_ bv63 6) (sc_s 1))))))))
 (let (($x11361 (forall ((w (_ BitVec 256)) )(let ((?x4532 (storage_s x_0 x_1 x_SLOAD_0 1 w)))
 (let ((?x2383 (storage_s x_0 x_1 x_SLOAD_0 2 w)))
 (= ?x2383 ?x4532))))
 ))
 (let (($x11360 (forall ((n (_ BitVec 6)) )(let ((?x2791 (stack_s x_0 x_1 x_SLOAD_0 1 n)))
 (let ((?x1907 (stack_s x_0 x_1 x_SLOAD_0 2 n)))
 (or (bvsle (bvadd (_ bv63 6) (sc_s 1)) n) (= ?x1907 ?x2791)))))
 ))
 (let ((?x154 (sc_s 1)))
 (let (($x1238 (= ?x218 ?x154)))
 (let ((?x3522 (used_gas_s x_0 x_1 x_SLOAD_0 2)))
 (let ((?x2267 (bvadd (_ bv63 6) ?x154)))
 (let ((?x10127 (stack_s x_0 x_1 x_SLOAD_0 1 ?x2267)))
 (let (($x7048 (or $x57 (not (= ((_ extract 6 6) (bvadd (_ bv1 7) (concat (_ bv0 1) ?x72))) (_ bv0 1))) (not (bvsle (_ bv0 6) (bvadd (_ bv63 6) ?x72))))))
 (let (($x189 (exc_halt_s 1)))
 (let (($x5833 (= $x189 $x7048)))
 (let (($x2194 (forall ((w (_ BitVec 256)) )(let ((?x7647 (storage_s x_0 x_1 x_SLOAD_0 0 w)))
 (let ((?x4532 (storage_s x_0 x_1 x_SLOAD_0 1 w)))
 (= ?x4532 ?x7647))))
 ))
 (let (($x6606 (forall ((n (_ BitVec 6)) )(let ((?x72 (sc_s 0)))
 (let ((?x8369 (bvadd (_ bv63 6) ?x72)))
 (let (($x3627 (bvsle ?x8369 n)))
 (let ((?x7991 (stack_s x_0 x_1 x_SLOAD_0 0 n)))
 (let ((?x2791 (stack_s x_0 x_1 x_SLOAD_0 1 n)))
 (or (= ?x2791 ?x7991) $x3627)))))))
 ))
 (let (($x5613 (= ?x154 (bvadd (_ bv1 6) ?x72))))
 (let ((?x8369 (bvadd (_ bv63 6) ?x72)))
 (let ((?x10415 (stack_s x_0 x_1 x_SLOAD_0 0 ?x8369)))
 (let (($x10363 (forall ((w (_ BitVec 256)) )(let ((?x400 (ite (= w (stack_s x_0 x_1 x_SLOAD_0 1 (bvadd (_ bv63 6) (sc_s 1)))) x_SLOAD_0 (_ bv0 256))))
 (let ((?x7647 (storage_s x_0 x_1 x_SLOAD_0 0 w)))
 (= ?x7647 ?x400))))
 ))
 (let (($x3021 (= ?x5339 0)))
 (let (($x9872 (not $x57)))
 (let (($x8362 (= (stack_s x_0 x_1 x_SLOAD_0 0 (_ bv1 6)) x_1)))
 (let (($x10365 (= (stack_s x_0 x_1 x_SLOAD_0 0 (_ bv0 6)) x_0)))
 (let (($x643 (= ?x72 (_ bv2 6))))
 (and $x643 $x10365 $x8362 $x9872 $x3021 $x10363 (= ?x10127 ?x10415) (= (stack_s x_0 x_1 x_SLOAD_0 1 ?x8369) ?x10415) (= (used_gas_s x_0 x_1 x_SLOAD_0 1) (+ 3 ?x5339)) $x5613 $x6606 $x2194 $x5833 (= ?x9816 (storage_s x_0 x_1 x_SLOAD_0 1 ?x10127)) (= ?x3522 (+ 200 (used_gas_s x_0 x_1 x_SLOAD_0 1))) $x1238 $x11360 $x11361 $x9575 (= ?x2705 (stack_s x_0 x_1 x_SLOAD_0 2 (bvadd (_ bv62 6) ?x218))) (= ?x10152 ?x9816) (= ?x9731 (+ 3 ?x3522)) $x9676 $x2507 $x10271 $x10091 (= ?x7839 (stack_s x_0 x_1 x_SLOAD_0 3 (bvadd (_ bv61 6) ?x275))) (= (stack_s x_0 x_1 x_SLOAD_0 4 (bvadd (_ bv61 6) ?x4305)) ?x2705) (= ?x4359 ?x10152) (= ?x5639 (+ 3 ?x9731)) $x8024 $x9745 $x6472 $x608 (= (stack_s x_0 x_1 x_SLOAD_0 5 (bvadd (_ bv63 6) ?x805)) ?x4359) (= (stack_s x_0 x_1 x_SLOAD_0 5 (bvadd (_ bv62 6) ?x805)) ?x7839) $x3332 $x5608 $x5867 $x8982 $x9754 (= ?x763 (stack_t x_0 x_1 x_SLOAD_0 0 (bvadd (_ bv62 6) ?x63))) (= ?x5258 (stack_t x_0 x_1 x_SLOAD_0 0 (bvadd (_ bv63 6) ?x63))) (= (used_gas_t x_0 x_1 x_SLOAD_0 1) (+ 3 ?x9008)) $x2379 $x6431 $x7528 $x573 (= ?x10094 ?x5258) (= (stack_t x_0 x_1 x_SLOAD_0 2 ?x4968) ?x5258) (= (stack_t x_0 x_1 x_SLOAD_0 2 ?x166) ?x763) (= ?x8604 (+ 3 (used_gas_t x_0 x_1 x_SLOAD_0 1))) (= ?x4056 (bvadd (_ bv1 6) ?x4023)) $x10234 $x10061 (= $x903 $x10216) $x10102 $x7539 $x10348 $x7552 $x10181 $x8560 $x73 $x2911 $x58 $x10389 $x10611 (not (and $x7911 $x9659 $x358 $x3506)))))))))))))))))))))))))))))))))))))))))))))))))))))))))))))))))))))))))))))))))))))))))))))))))))))
 )
(check-sat)
(get-proof)
